NAME : optical-integer.-19152775.tour
COMMENT : Length = -19152775
COMMENT : Found by LKH [Keld Helsgaun] Wed May 19 13:16:05 2021
TYPE : TOUR
DIMENSION : 174
TOUR_SECTION
1
41
69
60
57
68
82
8
36
33
85
81
17
149
38
79
50
66
18
28
72
24
22
9
20
30
89
61
12
171
7
96
25
94
10
98
156
154
92
21
44
172
11
46
45
26
74
93
170
91
4
51
88
27
75
130
73
90
14
168
76
95
83
56
42
43
5
37
59
32
34
152
153
151
6
97
55
48
53
174
67
131
54
86
173
65
169
87
99
52
135
157
163
141
159
129
106
110
118
115
100
111
103
113
114
102
117
120
101
109
105
104
108
107
58
62
70
23
49
63
84
47
145
35
77
39
2
40
78
112
64
148
144
162
164
160
166
161
140
127
138
167
139
165
116
125
124
123
128
122
121
126
137
133
132
134
119
136
158
155
71
16
15
13
29
19
80
146
31
3
143
142
147
150
-1
EOF
